NAME : rand100.2409635_12006596.tour
COMMENT : Cost = 2409635_12006596
COMMENT : Found by LKH-3 [Keld Helsgaun] Tue Mar 15 23:34:22 2022
TYPE : TOUR
DIMENSION : 104
TOUR_SECTION
1
15
63
97
86
49
21
75
82
4
32
78
33
10
27
92
73
50
46
56
19
54
38
70
72
17
20
74
26
9
12
85
14
87
62
103
69
91
11
39
96
29
35
44
100
45
52
57
36
64
13
104
60
8
90
51
65
80
81
5
61
34
7
40
55
25
43
24
42
41
22
30
48
83
68
71
18
102
47
31
84
89
2
23
16
101
67
3
79
6
28
37
93
77
95
59
76
58
88
66
98
94
53
99
-1
EOF
